Minimize
  0.1111111111111111 y_0 + y_1 + 0.0454545454545455 y_2
   + 0.1111111111111111 y_3 + 0.05 y_4 + 0.3333333333333333 y_5
   + 0.0588235294117647 y_6 + 0.0434782608695652 y_7
   + 0.0555555555555556 y_8 + 0.0833333333333333 y_9
   - 1.89220078018032 Constant
Subject To
 c_0: y_6 = 1
 c_1_0: y_0 >= 1
 c_1_1: y_1 + y_5 >= 1
 c_1_2: y_2 >= 1
 c_1_3: y_3 >= 1
 c_1_4: y_4 + y_8 >= 1
 c_1_5: y_1 + y_5 >= 1
 c_1_6: y_6 >= 1
 c_1_7: y_7 >= 1
 c_1_8: y_4 + y_8 >= 1
 c_1_9: y_9 >= 1
Bounds
 Constant = 1
Binaries
 y_0 y_1 y_2 y_3 y_4 y_5 y_6 y_7 y_8 y_9
End
